N = 5;
Q = [[[[-46.46539158  22.23269579  22.23269579  22.23269579  22.23269579]
   [ 22.23269579   0.90833192   2.23383025   2.22573429   4.78682929]
   [ 22.23269579   0.           0.           0.           0.        ]
   [ 22.23269579   0.           0.           0.           0.        ]
   [ 22.23269579   0.           0.           0.           0.        ]]

  [[ 22.23269579 -44.46539158  22.23269579  22.23269579  22.23269579]
   [  0.90833192  22.23269579   4.683745     5.82401426   3.125728  ]
   [  0.          22.23269579   0.           0.           0.        ]
   [  0.          22.23269579   0.           0.           0.        ]
   [  0.          22.23269579   0.           0.           0.        ]]

  [[ 22.23269579  22.23269579 -44.46539158  22.23269579  22.23269579]
   [  2.23383025   4.683745    22.23269579   7.03456623   7.28055432]
   [  0.           0.          22.23269579   0.           0.        ]
   [  0.           0.          22.23269579   0.           0.        ]
   [  0.           0.          22.23269579   0.           0.        ]]

  [[ 22.23269579  22.23269579  22.23269579 -44.46539158  22.23269579]
   [  2.22573429   5.82401426   7.03456623  22.23269579   5.40813529]
   [  0.           0.           0.          22.23269579   0.        ]
   [  0.           0.           0.          22.23269579   0.        ]
   [  0.           0.           0.          22.23269579   0.        ]]

  [[ 22.23269579  22.23269579  22.23269579  22.23269579 -44.46539158]
   [  4.78682929   3.125728     7.28055432   5.40813529  22.23269579]
   [  0.           0.           0.           0.          22.23269579]
   [  0.           0.           0.           0.          22.23269579]
   [  0.           0.           0.           0.          22.23269579]]]


 [[[ 22.23269579   0.           0.           0.           0.        ]
   [-44.46539158  22.23269579  22.23269579  22.23269579  22.23269579]
   [ 22.23269579   0.90833192   2.23383025   2.22573429   4.78682929]
   [ 22.23269579   0.           0.           0.           0.        ]
   [ 22.23269579   0.           0.           0.           0.        ]]

  [[  0.          22.23269579   0.           0.           0.        ]
   [ 22.23269579 -44.46539158  22.23269579  22.23269579  22.23269579]
   [  0.90833192  22.23269579   4.683745     5.82401426   3.125728  ]
   [  0.          22.23269579   0.           0.           0.        ]
   [  0.          22.23269579   0.           0.           0.        ]]

  [[  0.           0.          22.23269579   0.           0.        ]
   [ 22.23269579  22.23269579 -44.46539158  22.23269579  22.23269579]
   [  2.23383025   4.683745    22.23269579   7.03456623   7.28055432]
   [  0.           0.          22.23269579   0.           0.        ]
   [  0.           0.          22.23269579   0.           0.        ]]

  [[  0.           0.           0.          22.23269579   0.        ]
   [ 22.23269579  22.23269579  22.23269579 -44.46539158  22.23269579]
   [  2.22573429   5.82401426   7.03456623  22.23269579   5.40813529]
   [  0.           0.           0.          22.23269579   0.        ]
   [  0.           0.           0.          22.23269579   0.        ]]

  [[  0.           0.           0.           0.          22.23269579]
   [ 22.23269579  22.23269579  22.23269579  22.23269579 -44.46539158]
   [  4.78682929   3.125728     7.28055432   5.40813529  22.23269579]
   [  0.           0.           0.           0.          22.23269579]
   [  0.           0.           0.           0.          22.23269579]]]


 [[[ 22.23269579   0.           0.           0.           0.        ]
   [ 22.23269579   0.           0.           0.           0.        ]
   [-44.46539158  22.23269579  22.23269579  22.23269579  22.23269579]
   [ 22.23269579   0.90833192   2.23383025   2.22573429   4.78682929]
   [ 22.23269579   0.           0.           0.           0.        ]]

  [[  0.          22.23269579   0.           0.           0.        ]
   [  0.          22.23269579   0.           0.           0.        ]
   [ 22.23269579 -44.46539158  22.23269579  22.23269579  22.23269579]
   [  0.90833192  22.23269579   4.683745     5.82401426   3.125728  ]
   [  0.          22.23269579   0.           0.           0.        ]]

  [[  0.           0.          22.23269579   0.           0.        ]
   [  0.           0.          22.23269579   0.           0.        ]
   [ 22.23269579  22.23269579 -44.46539158  22.23269579  22.23269579]
   [  2.23383025   4.683745    22.23269579   7.03456623   7.28055432]
   [  0.           0.          22.23269579   0.           0.        ]]

  [[  0.           0.           0.          22.23269579   0.        ]
   [  0.           0.           0.          22.23269579   0.        ]
   [ 22.23269579  22.23269579  22.23269579 -44.46539158  22.23269579]
   [  2.22573429   5.82401426   7.03456623  22.23269579   5.40813529]
   [  0.           0.           0.          22.23269579   0.        ]]

  [[  0.           0.           0.           0.          22.23269579]
   [  0.           0.           0.           0.          22.23269579]
   [ 22.23269579  22.23269579  22.23269579  22.23269579 -44.46539158]
   [  4.78682929   3.125728     7.28055432   5.40813529  22.23269579]
   [  0.           0.           0.           0.          22.23269579]]]


 [[[ 22.23269579   0.           0.           0.           0.        ]
   [ 22.23269579   0.           0.           0.           0.        ]
   [ 22.23269579   0.           0.           0.           0.        ]
   [-44.46539158  22.23269579  22.23269579  22.23269579  22.23269579]
   [ 22.23269579   0.90833192   2.23383025   2.22573429   4.78682929]]

  [[  0.          22.23269579   0.           0.           0.        ]
   [  0.          22.23269579   0.           0.           0.        ]
   [  0.          22.23269579   0.           0.           0.        ]
   [ 22.23269579 -44.46539158  22.23269579  22.23269579  22.23269579]
   [  0.90833192  22.23269579   4.683745     5.82401426   3.125728  ]]

  [[  0.           0.          22.23269579   0.           0.        ]
   [  0.           0.          22.23269579   0.           0.        ]
   [  0.           0.          22.23269579   0.           0.        ]
   [ 22.23269579  22.23269579 -44.46539158  22.23269579  22.23269579]
   [  2.23383025   4.683745    22.23269579   7.03456623   7.28055432]]

  [[  0.           0.           0.          22.23269579   0.        ]
   [  0.           0.           0.          22.23269579   0.        ]
   [  0.           0.           0.          22.23269579   0.        ]
   [ 22.23269579  22.23269579  22.23269579 -44.46539158  22.23269579]
   [  2.22573429   5.82401426   7.03456623  22.23269579   5.40813529]]

  [[  0.           0.           0.           0.          22.23269579]
   [  0.           0.           0.           0.          22.23269579]
   [  0.           0.           0.           0.          22.23269579]
   [ 22.23269579  22.23269579  22.23269579  22.23269579 -44.46539158]
   [  4.78682929   3.125728     7.28055432   5.40813529  22.23269579]]]


 [[[ 22.23269579   0.90833192   2.23383025   2.22573429   4.78682929]
   [ 22.23269579   0.           0.           0.           0.        ]
   [ 22.23269579   0.           0.           0.           0.        ]
   [ 22.23269579   0.           0.           0.           0.        ]
   [-44.46539158  22.23269579  22.23269579  22.23269579  22.23269579]]

  [[  0.90833192  22.23269579   4.683745     5.82401426   3.125728  ]
   [  0.          22.23269579   0.           0.           0.        ]
   [  0.          22.23269579   0.           0.           0.        ]
   [  0.          22.23269579   0.           0.           0.        ]
   [ 22.23269579 -44.46539158  22.23269579  22.23269579  22.23269579]]

  [[  2.23383025   4.683745    22.23269579   7.03456623   7.28055432]
   [  0.           0.          22.23269579   0.           0.        ]
   [  0.           0.          22.23269579   0.           0.        ]
   [  0.           0.          22.23269579   0.           0.        ]
   [ 22.23269579  22.23269579 -44.46539158  22.23269579  22.23269579]]

  [[  2.22573429   5.82401426   7.03456623  22.23269579   5.40813529]
   [  0.           0.           0.          22.23269579   0.        ]
   [  0.           0.           0.          22.23269579   0.        ]
   [  0.           0.           0.          22.23269579   0.        ]
   [ 22.23269579  22.23269579  22.23269579 -44.46539158  22.23269579]]

  [[  4.78682929   3.125728     7.28055432   5.40813529  22.23269579]
   [  0.           0.           0.           0.          22.23269579]
   [  0.           0.           0.           0.          22.23269579]
   [  0.           0.           0.           0.          22.23269579]
   [ 22.23269579  22.23269579  22.23269579  22.23269579 -44.46539158]]]];
C = 224.32695790981302;
// The indices of the 4-tensor Q are (time,node, time,node). It is to be contracted with boolean variables x with indices (time,node). To unfold it and write everything in standard matrix formulation, use np.reshape(Q,(N**2,N**2) and np.reshape(x,N**2).